NAME: random-26-32729
TYPE: TSP
COMMENT: size=26 seed=32729
DIMENSION: 54
EDGE_WEIGHT_TYPE: EUC_2D
NODE_COORD_SECTION
+0 303 186
-0 303 186
+1 878 886
-1 843 16
+2 763 484
-2 263 932
+3 856 861
-3 920 295
+4 381 44
-4 804 159
+5 926 582
-5 289 9
+6 222 642
-6 348 568
+7 959 212
-7 642 739
+8 165 852
-8 613 383
+9 556 489
-9 646 330
+10 948 309
-10 300 512
+11 584 539
-11 428 454
+12 951 152
-12 87 692
+13 178 117
-13 546 707
+14 215 671
-14 591 933
+15 962 250
-15 862 169
+16 652 788
-16 863 489
+17 919 946
-17 853 65
+18 919 1
-18 899 6
+19 268 311
-19 644 125
+20 664 885
-20 748 25
+21 741 367
-21 80 442
+22 762 188
-22 148 492
+23 409 672
-23 346 478
+24 522 646
-24 644 11
+25 734 755
-25 159 720
+26 816 259
-26 166 6
PRECEDENCE_SECTION
+0 -0
+1 -1
+2 -2
+3 -3
+4 -4
+5 -5
+6 -6
+7 -7
+8 -8
+9 -9
+10 -10
+11 -11
+12 -12
+13 -13
+14 -14
+15 -15
+16 -16
+17 -17
+18 -18
+19 -19
+20 -20
+21 -21
+22 -22
+23 -23
+24 -24
+25 -25
+26 -26
EOF
